100
128
51
13
2
2
60
11
7
11
15
20
15
20
63
24
41
17
8
46
21
16
49
2
35
59
33
10
10
14
35
32
20
15
19
48
2
11
19
16
38
31
13
20
14
7
4
19
36
49
27
39
2
60
32
20
43
48
22
33
60
23
39
1
32
24
20
6
64
1
20
3
18
48
32
63
35
48
30
32
39
56
22
44
44
53
39
64
64
4
36
36
64
64
41
64
23
37
46
44
64
62